(set-info :smt-lib-version 2.6)
(set-logic QF_S)
(set-info :source |
Generated by: Hung-En Wang, Tzung-Lin Tsai, Chun-Han Lin, Fang Yu, and Jie-Hong R. Jiang
Generated on: 2019-02-28
Generator: Stranger
Application: Security analysis of string manipulating web applications
Target solver: CVC4, Norn, Z3-str2
Publication:
Hung-En Wang, Tzung-Lin Tsai, Chun-Han Lin, Fang Yu, Jie-Hong R. Jiang:
String Analysis via Automata Manipulation with Logic Circuit Representation. CAV (1) 2016: 241-260.
|)
(set-info :license "https://creativecommons.org/licenses/by/4.0/")
(set-info :category "industrial")
(set-info :status unknown)

(declare-fun sigmaStar_0 () String)
(declare-fun sigmaStar_1 () String)
(declare-fun sigmaStar_2 () String)
(declare-fun sigmaStar_3 () String)
(declare-fun sigmaStar_4 () String)
(declare-fun sigmaStar_5 () String)
(declare-fun sigmaStar_6 () String)
(declare-fun sigmaStar_7 () String)
(declare-fun sigmaStar_8 () String)
(declare-fun sigmaStar_9 () String)
(declare-fun sigmaStar_10 () String)
(declare-fun sigmaStar_11 () String)
(declare-fun sigmaStar_12 () String)
(declare-fun sigmaStar_13 () String)
(declare-fun sigmaStar_14 () String)
(declare-fun literal_15 () String)
(declare-fun x_16 () String)
(declare-fun sigmaStar_17 () String)
(declare-fun literal_18 () String)
(declare-fun x_22 () String)
(declare-fun literal_21 () String)
(declare-fun x_25 () String)
(declare-fun literal_20 () String)
(declare-fun x_26 () String)
(declare-fun literal_19 () String)
(declare-fun x_27 () String)
(declare-fun sigmaStar_28 () String)
(declare-fun literal_29 () String)
(declare-fun x_32 () String)
(declare-fun x_33 () String)
(declare-fun literal_31 () String)
(declare-fun x_35 () String)
(declare-fun literal_30 () String)
(declare-fun x_36 () String)
(declare-fun x_37 () String)
(declare-fun literal_38 () String)
(declare-fun x_39 () String)
(declare-fun x_40 () String)
(declare-fun x_41 () String)
(declare-fun x_42 () String)
(declare-fun literal_44 () String)
(declare-fun x_45 () String)
(declare-fun literal_43 () String)
(declare-fun x_46 () String)
(declare-fun literal_47 () String)
(declare-fun x_48 () String)
(declare-fun x_49 () String)
(declare-fun literal_50 () String)
(declare-fun x_51 () String)
(assert (= literal_15 "\u{3f}\u{61}\u{63}\u{74}\u{69}\u{6f}\u{6e}\u{3d}\u{6e}\u{65}\u{77}\u{74}\u{68}\u{72}\u{65}\u{61}\u{64}\u{26}\u{61}\u{6d}\u{70}\u{3b}\u{66}\u{6f}\u{72}\u{75}\u{6d}\u{5f}\u{69}\u{64}\u{3d}"))
(assert (= x_16 (str.++ literal_15 sigmaStar_5)))
(assert (= literal_18 "\u{20}\u{65}\u{6e}\u{63}\u{74}\u{79}\u{70}\u{65}\u{3d}\u{6d}\u{75}\u{6c}\u{74}\u{69}\u{70}\u{61}\u{72}\u{74}\u{2f}\u{66}\u{6f}\u{72}\u{6d}\u{2d}\u{64}\u{61}\u{74}\u{61}\u{27}\u{3e}\u{0d}\u{0a}\u{3c}\u{74}\u{61}\u{62}\u{6c}\u{65}\u{20}\u{63}\u{65}\u{6c}\u{6c}\u{70}\u{61}\u{64}\u{64}\u{69}\u{6e}\u{67}\u{3d}\u{27}\u{30}\u{27}\u{20}\u{63}\u{65}\u{6c}\u{6c}\u{73}\u{70}\u{61}\u{63}\u{69}\u{6e}\u{67}\u{3d}\u{27}\u{30}\u{27}\u{20}\u{77}\u{69}\u{64}\u{74}\u{68}\u{3d}\u{27}\u{31}\u{30}\u{30}\u{25}\u{27}\u{20}\u{63}\u{6c}\u{61}\u{73}\u{73}\u{3d}\u{27}\u{74}\u{62}\u{6c}\u{2d}\u{62}\u{6f}\u{72}\u{64}\u{65}\u{72}\u{27}\u{3e}\u{0d}\u{0a}\u{3c}\u{74}\u{72}\u{3e}\u{0d}\u{0a}\u{3c}\u{74}\u{64}\u{3e}\u{0d}\u{0a}\u{3c}\u{74}\u{61}\u{62}\u{6c}\u{65}\u{20}\u{77}\u{69}\u{64}\u{74}\u{68}\u{3d}\u{27}\u{31}\u{30}\u{30}\u{25}\u{27}\u{20}\u{62}\u{6f}\u{72}\u{64}\u{65}\u{72}\u{3d}\u{27}\u{30}\u{27}\u{20}\u{63}\u{65}\u{6c}\u{6c}\u{73}\u{70}\u{61}\u{63}\u{69}\u{6e}\u{67}\u{3d}\u{27}\u{31}\u{27}\u{20}\u{63}\u{65}\u{6c}\u{6c}\u{70}\u{61}\u{64}\u{64}\u{69}\u{6e}\u{67}\u{3d}\u{27}\u{30}\u{27}\u{3e}\u{0d}\u{0a}\u{3c}\u{74}\u{72}\u{3e}\u{0d}\u{0a}\u{3c}\u{74}\u{64}\u{20}\u{77}\u{69}\u{64}\u{74}\u{68}\u{3d}\u{27}\u{31}\u{34}\u{35}\u{27}\u{20}\u{63}\u{6c}\u{61}\u{73}\u{73}\u{3d}\u{27}\u{74}\u{62}\u{6c}\u{32}\u{27}\u{3e}"))
(assert (= x_22 (str.++ x_16 literal_18)))
(assert (= literal_21 "\u{3c}\u{2f}\u{74}\u{64}\u{3e}\u{0d}\u{0a}\u{3c}\u{74}\u{64}\u{20}\u{63}\u{6c}\u{61}\u{73}\u{73}\u{3d}\u{27}\u{74}\u{62}\u{6c}\u{32}\u{27}\u{3e}\u{3c}\u{69}\u{6e}\u{70}\u{75}\u{74}\u{20}\u{74}\u{79}\u{70}\u{65}\u{3d}\u{27}\u{74}\u{65}\u{78}\u{74}\u{27}\u{20}\u{6e}\u{61}\u{6d}\u{65}\u{3d}\u{27}\u{73}\u{75}\u{62}\u{6a}\u{65}\u{63}\u{74}\u{27}\u{20}\u{76}\u{61}\u{6c}\u{75}\u{65}\u{3d}\u{27}"))
(assert (= literal_20 ""))
(assert (or (= x_25 literal_20) (= x_25 sigmaStar_14) (= x_25 sigmaStar_13) (= x_25 sigmaStar_0)))
(assert (= x_26 (str.++ literal_21 x_25)))
(assert (= literal_19 "\u{3c}\u{66}\u{6f}\u{72}\u{6d}\u{20}\u{6e}\u{61}\u{6d}\u{65}\u{3d}\u{27}\u{69}\u{6e}\u{70}\u{75}\u{74}\u{66}\u{6f}\u{72}\u{6d}\u{27}\u{20}\u{6d}\u{65}\u{74}\u{68}\u{6f}\u{64}\u{3d}\u{27}\u{70}\u{6f}\u{73}\u{74}\u{27}\u{20}\u{61}\u{63}\u{74}\u{69}\u{6f}\u{6e}\u{3d}\u{27}"))
(assert (= x_27 (str.++ literal_19 x_22)))
(assert (= literal_29 "\u{20}\u{63}\u{6c}\u{61}\u{73}\u{73}\u{3d}\u{74}\u{65}\u{78}\u{74}\u{62}\u{6f}\u{78}\u{27}\u{20}\u{6d}\u{61}\u{78}\u{6c}\u{65}\u{6e}\u{67}\u{74}\u{68}\u{3d}\u{27}\u{32}\u{35}\u{35}\u{27}\u{20}\u{73}\u{74}\u{79}\u{6c}\u{65}\u{3d}\u{27}\u{77}\u{69}\u{64}\u{74}\u{68}\u{3a}\u{20}\u{32}\u{35}\u{30}\u{70}\u{78}\u{27}\u{3e}\u{3c}\u{2f}\u{74}\u{64}\u{3e}\u{0d}\u{0a}\u{3c}\u{2f}\u{74}\u{72}\u{3e}\u{0d}\u{0a}\u{3c}\u{74}\u{72}\u{3e}\u{0d}\u{0a}\u{3c}\u{74}\u{64}\u{20}\u{76}\u{61}\u{6c}\u{69}\u{67}\u{6e}\u{3d}\u{27}\u{74}\u{6f}\u{70}\u{27}\u{20}\u{77}\u{69}\u{64}\u{74}\u{68}\u{3d}\u{27}\u{31}\u{34}\u{35}\u{27}\u{20}\u{63}\u{6c}\u{61}\u{73}\u{73}\u{3d}\u{27}\u{74}\u{62}\u{6c}\u{32}\u{27}\u{3e}"))
(assert (= x_32 (str.++ x_26 literal_29)))
(assert (= x_33 (str.++ x_27 sigmaStar_4)))
(assert (= literal_31 "\u{3c}\u{2f}\u{74}\u{64}\u{3e}\u{0d}\u{0a}\u{3c}\u{74}\u{64}\u{20}\u{63}\u{6c}\u{61}\u{73}\u{73}\u{3d}\u{27}\u{74}\u{62}\u{6c}\u{31}\u{27}\u{3e}\u{3c}\u{74}\u{65}\u{78}\u{74}\u{61}\u{72}\u{65}\u{61}\u{20}\u{6e}\u{61}\u{6d}\u{65}\u{3d}\u{27}\u{6d}\u{65}\u{73}\u{73}\u{61}\u{67}\u{65}\u{27}\u{20}\u{63}\u{6f}\u{6c}\u{73}\u{3d}\u{27}\u{38}\u{30}\u{27}\u{20}\u{72}\u{6f}\u{77}\u{73}\u{3d}\u{27}\u{31}\u{35}\u{27}\u{20}\u{63}\u{6c}\u{61}\u{73}\u{73}\u{3d}\u{27}\u{74}\u{65}\u{78}\u{74}\u{62}\u{6f}\u{78}\u{27}\u{3e}"))
(assert (= literal_30 ""))
(assert (or (= x_35 literal_30) (= x_35 sigmaStar_2) (= x_35 sigmaStar_7)))
(assert (= x_36 (str.++ literal_31 x_35)))
(assert (= x_37 (str.++ x_33 x_32)))
(assert (= literal_38 "\u{3c}\u{2f}\u{74}\u{65}\u{78}\u{74}\u{61}\u{72}\u{65}\u{61}\u{3e}\u{3c}\u{2f}\u{74}\u{64}\u{3e}\u{0d}\u{0a}\u{3c}\u{2f}\u{74}\u{72}\u{3e}\u{0d}\u{0a}\u{3c}\u{74}\u{72}\u{3e}\u{0d}\u{0a}\u{3c}\u{74}\u{64}\u{20}\u{77}\u{69}\u{64}\u{74}\u{68}\u{3d}\u{27}\u{31}\u{34}\u{35}\u{27}\u{20}\u{63}\u{6c}\u{61}\u{73}\u{73}\u{3d}\u{27}\u{74}\u{62}\u{6c}\u{32}\u{27}\u{3e}\u{26}\u{6e}\u{62}\u{73}\u{70}\u{3b}\u{3c}\u{2f}\u{74}\u{64}\u{3e}\u{0d}\u{0a}\u{3c}\u{74}\u{64}\u{20}\u{63}\u{6c}\u{61}\u{73}\u{73}\u{3d}\u{27}\u{74}\u{62}\u{6c}\u{32}\u{27}\u{3e}\u{0d}\u{0a}\u{3c}\u{69}\u{6e}\u{70}\u{75}\u{74}\u{20}\u{74}\u{79}\u{70}\u{65}\u{3d}\u{27}\u{62}\u{75}\u{74}\u{74}\u{6f}\u{6e}\u{27}\u{20}\u{76}\u{61}\u{6c}\u{75}\u{65}\u{3d}\u{27}\u{62}\u{27}\u{20}\u{63}\u{6c}\u{61}\u{73}\u{73}\u{3d}\u{27}\u{62}\u{75}\u{74}\u{74}\u{6f}\u{6e}\u{27}\u{20}\u{73}\u{74}\u{79}\u{6c}\u{65}\u{3d}\u{27}\u{66}\u{6f}\u{6e}\u{74}\u{2d}\u{77}\u{65}\u{69}\u{67}\u{68}\u{74}\u{3a}\u{62}\u{6f}\u{6c}\u{64}\u{3b}\u{77}\u{69}\u{64}\u{74}\u{68}\u{3a}\u{32}\u{35}\u{70}\u{78}\u{3b}\u{27}\u{20}\u{6f}\u{6e}\u{43}\u{6c}\u{69}\u{63}\u{6b}\u{3d}\u{5c}\u{22}\u{61}\u{64}\u{64}\u{54}\u{65}\u{78}\u{74}\u{28}\u{27}\u{6d}\u{65}\u{73}\u{73}\u{61}\u{67}\u{65}\u{27}\u{2c}\u{20}\u{27}\u{5b}\u{62}\u{5d}\u{27}\u{2c}\u{20}\u{27}\u{5b}\u{2f}\u{62}\u{5d}\u{27}\u{29}\u{3b}\u{5c}\u{22}\u{3e}\u{0d}\u{0a}\u{3c}\u{69}\u{6e}\u{70}\u{75}\u{74}\u{20}\u{74}\u{79}\u{70}\u{65}\u{3d}\u{27}\u{62}\u{75}\u{74}\u{74}\u{6f}\u{6e}\u{27}\u{20}\u{76}\u{61}\u{6c}\u{75}\u{65}\u{3d}\u{27}\u{69}\u{27}\u{20}\u{63}\u{6c}\u{61}\u{73}\u{73}\u{3d}\u{27}\u{62}\u{75}\u{74}\u{74}\u{6f}\u{6e}\u{27}\u{20}\u{73}\u{74}\u{79}\u{6c}\u{65}\u{3d}\u{27}\u{66}\u{6f}\u{6e}\u{74}\u{2d}\u{73}\u{74}\u{79}\u{6c}\u{65}\u{3a}\u{69}\u{74}\u{61}\u{6c}\u{69}\u{63}\u{3b}\u{77}\u{69}\u{64}\u{74}\u{68}\u{3a}\u{32}\u{35}\u{70}\u{78}\u{3b}\u{27}\u{20}\u{6f}\u{6e}\u{43}\u{6c}\u{69}\u{63}\u{6b}\u{3d}\u{5c}\u{22}\u{61}\u{64}\u{64}\u{54}\u{65}\u{78}\u{74}\u{28}\u{27}\u{6d}\u{65}\u{73}\u{73}\u{61}\u{67}\u{65}\u{27}\u{2c}\u{20}\u{27}\u{5b}\u{69}\u{5d}\u{27}\u{2c}\u{20}\u{27}\u{5b}\u{2f}\u{69}\u{5d}\u{27}\u{29}\u{3b}\u{5c}\u{22}\u{3e}\u{0d}\u{0a}\u{3c}\u{69}\u{6e}\u{70}\u{75}\u{74}\u{20}\u{74}\u{79}\u{70}\u{65}\u{3d}\u{27}\u{62}\u{75}\u{74}\u{74}\u{6f}\u{6e}\u{27}\u{20}\u{76}\u{61}\u{6c}\u{75}\u{65}\u{3d}\u{27}\u{75}\u{27}\u{20}\u{63}\u{6c}\u{61}\u{73}\u{73}\u{3d}\u{27}\u{62}\u{75}\u{74}\u{74}\u{6f}\u{6e}\u{27}\u{20}\u{73}\u{74}\u{79}\u{6c}\u{65}\u{3d}\u{27}\u{74}\u{65}\u{78}\u{74}\u{2d}\u{64}\u{65}\u{63}\u{6f}\u{72}\u{61}\u{74}\u{69}\u{6f}\u{6e}\u{3a}\u{75}\u{6e}\u{64}\u{65}\u{72}\u{6c}\u{69}\u{6e}\u{65}\u{3b}\u{77}\u{69}\u{64}\u{74}\u{68}\u{3a}\u{32}\u{35}\u{70}\u{78}\u{3b}\u{27}\u{20}\u{6f}\u{6e}\u{43}\u{6c}\u{69}\u{63}\u{6b}\u{3d}\u{5c}\u{22}\u{61}\u{64}\u{64}\u{54}\u{65}\u{78}\u{74}\u{28}\u{27}\u{6d}\u{65}\u{73}\u{73}\u{61}\u{67}\u{65}\u{27}\u{2c}\u{20}\u{27}\u{5b}\u{75}\u{5d}\u{27}\u{2c}\u{20}\u{27}\u{5b}\u{2f}\u{75}\u{5d}\u{27}\u{29}\u{3b}\u{5c}\u{22}\u{3e}\u{0d}\u{0a}\u{3c}\u{69}\u{6e}\u{70}\u{75}\u{74}\u{20}\u{74}\u{79}\u{70}\u{65}\u{3d}\u{27}\u{62}\u{75}\u{74}\u{74}\u{6f}\u{6e}\u{27}\u{20}\u{76}\u{61}\u{6c}\u{75}\u{65}\u{3d}\u{27}\u{75}\u{72}\u{6c}\u{27}\u{20}\u{63}\u{6c}\u{61}\u{73}\u{73}\u{3d}\u{27}\u{62}\u{75}\u{74}\u{74}\u{6f}\u{6e}\u{27}\u{20}\u{73}\u{74}\u{79}\u{6c}\u{65}\u{3d}\u{27}\u{77}\u{69}\u{64}\u{74}\u{68}\u{3a}\u{33}\u{30}\u{70}\u{78}\u{3b}\u{27}\u{20}\u{6f}\u{6e}\u{43}\u{6c}\u{69}\u{63}\u{6b}\u{3d}\u{5c}\u{22}\u{61}\u{64}\u{64}\u{54}\u{65}\u{78}\u{74}\u{28}\u{27}\u{6d}\u{65}\u{73}\u{73}\u{61}\u{67}\u{65}\u{27}\u{2c}\u{20}\u{27}\u{5b}\u{75}\u{72}\u{6c}\u{5d}\u{27}\u{2c}\u{20}\u{27}\u{5b}\u{2f}\u{75}\u{72}\u{6c}\u{5d}\u{27}\u{29}\u{3b}\u{5c}\u{22}\u{3e}\u{0d}\u{0a}\u{3c}\u{69}\u{6e}\u{70}\u{75}\u{74}\u{20}\u{74}\u{79}\u{70}\u{65}\u{3d}\u{27}\u{62}\u{75}\u{74}\u{74}\u{6f}\u{6e}\u{27}\u{20}\u{76}\u{61}\u{6c}\u{75}\u{65}\u{3d}\u{27}\u{6d}\u{61}\u{69}\u{6c}\u{27}\u{20}\u{63}\u{6c}\u{61}\u{73}\u{73}\u{3d}\u{27}\u{62}\u{75}\u{74}\u{74}\u{6f}\u{6e}\u{27}\u{20}\u{73}\u{74}\u{79}\u{6c}\u{65}\u{3d}\u{27}\u{77}\u{69}\u{64}\u{74}\u{68}\u{3a}\u{33}\u{35}\u{70}\u{78}\u{3b}\u{27}\u{20}\u{6f}\u{6e}\u{43}\u{6c}\u{69}\u{63}\u{6b}\u{3d}\u{5c}\u{22}\u{61}\u{64}\u{64}\u{54}\u{65}\u{78}\u{74}\u{28}\u{27}\u{6d}\u{65}\u{73}\u{73}\u{61}\u{67}\u{65}\u{27}\u{2c}\u{20}\u{27}\u{5b}\u{6d}\u{61}\u{69}\u{6c}\u{5d}\u{27}\u{2c}\u{20}\u{27}\u{5b}\u{2f}\u{6d}\u{61}\u{69}\u{6c}\u{5d}\u{27}\u{29}\u{3b}\u{5c}\u{22}\u{3e}\u{0d}\u{0a}\u{3c}\u{69}\u{6e}\u{70}\u{75}\u{74}\u{20}\u{74}\u{79}\u{70}\u{65}\u{3d}\u{27}\u{62}\u{75}\u{74}\u{74}\u{6f}\u{6e}\u{27}\u{20}\u{76}\u{61}\u{6c}\u{75}\u{65}\u{3d}\u{27}\u{69}\u{6d}\u{67}\u{27}\u{20}\u{63}\u{6c}\u{61}\u{73}\u{73}\u{3d}\u{27}\u{62}\u{75}\u{74}\u{74}\u{6f}\u{6e}\u{27}\u{20}\u{73}\u{74}\u{79}\u{6c}\u{65}\u{3d}\u{27}\u{77}\u{69}\u{64}\u{74}\u{68}\u{3a}\u{33}\u{30}\u{70}\u{78}\u{3b}\u{27}\u{20}\u{6f}\u{6e}\u{43}\u{6c}\u{69}\u{63}\u{6b}\u{3d}\u{5c}\u{22}\u{61}\u{64}\u{64}\u{54}\u{65}\u{78}\u{74}\u{28}\u{27}\u{6d}\u{65}\u{73}\u{73}\u{61}\u{67}\u{65}\u{27}\u{2c}\u{20}\u{27}\u{5b}\u{69}\u{6d}\u{67}\u{5d}\u{27}\u{2c}\u{20}\u{27}\u{5b}\u{2f}\u{69}\u{6d}\u{67}\u{5d}\u{27}\u{29}\u{3b}\u{5c}\u{22}\u{3e}\u{0d}\u{0a}\u{3c}\u{69}\u{6e}\u{70}\u{75}\u{74}\u{20}\u{74}\u{79}\u{70}\u{65}\u{3d}\u{27}\u{62}\u{75}\u{74}\u{74}\u{6f}\u{6e}\u{27}\u{20}\u{76}\u{61}\u{6c}\u{75}\u{65}\u{3d}\u{27}\u{63}\u{65}\u{6e}\u{74}\u{65}\u{72}\u{27}\u{20}\u{63}\u{6c}\u{61}\u{73}\u{73}\u{3d}\u{27}\u{62}\u{75}\u{74}\u{74}\u{6f}\u{6e}\u{27}\u{20}\u{73}\u{74}\u{79}\u{6c}\u{65}\u{3d}\u{27}\u{77}\u{69}\u{64}\u{74}\u{68}\u{3a}\u{34}\u{35}\u{70}\u{78}\u{3b}\u{27}\u{20}\u{6f}\u{6e}\u{43}\u{6c}\u{69}\u{63}\u{6b}\u{3d}\u{5c}\u{22}\u{61}\u{64}\u{64}\u{54}\u{65}\u{78}\u{74}\u{28}\u{27}\u{6d}\u{65}\u{73}\u{73}\u{61}\u{67}\u{65}\u{27}\u{2c}\u{20}\u{27}\u{5b}\u{63}\u{65}\u{6e}\u{74}\u{65}\u{72}\u{5d}\u{27}\u{2c}\u{20}\u{27}\u{5b}\u{2f}\u{63}\u{65}\u{6e}\u{74}\u{65}\u{72}\u{5d}\u{27}\u{29}\u{3b}\u{5c}\u{22}\u{3e}\u{0d}\u{0a}\u{3c}\u{69}\u{6e}\u{70}\u{75}\u{74}\u{20}\u{74}\u{79}\u{70}\u{65}\u{3d}\u{27}\u{62}\u{75}\u{74}\u{74}\u{6f}\u{6e}\u{27}\u{20}\u{76}\u{61}\u{6c}\u{75}\u{65}\u{3d}\u{27}\u{73}\u{6d}\u{61}\u{6c}\u{6c}\u{27}\u{20}\u{63}\u{6c}\u{61}\u{73}\u{73}\u{3d}\u{27}\u{62}\u{75}\u{74}\u{74}\u{6f}\u{6e}\u{27}\u{20}\u{73}\u{74}\u{79}\u{6c}\u{65}\u{3d}\u{27}\u{77}\u{69}\u{64}\u{74}\u{68}\u{3a}\u{34}\u{30}\u{70}\u{78}\u{3b}\u{27}\u{20}\u{6f}\u{6e}\u{43}\u{6c}\u{69}\u{63}\u{6b}\u{3d}\u{5c}\u{22}\u{61}\u{64}\u{64}\u{54}\u{65}\u{78}\u{74}\u{28}\u{27}\u{6d}\u{65}\u{73}\u{73}\u{61}\u{67}\u{65}\u{27}\u{2c}\u{20}\u{27}\u{5b}\u{73}\u{6d}\u{61}\u{6c}\u{6c}\u{5d}\u{27}\u{2c}\u{20}\u{27}\u{5b}\u{2f}\u{73}\u{6d}\u{61}\u{6c}\u{6c}\u{5d}\u{27}\u{29}\u{3b}\u{5c}\u{22}\u{3e}\u{0d}\u{0a}\u{3c}\u{69}\u{6e}\u{70}\u{75}\u{74}\u{20}\u{74}\u{79}\u{70}\u{65}\u{3d}\u{27}\u{62}\u{75}\u{74}\u{74}\u{6f}\u{6e}\u{27}\u{20}\u{76}\u{61}\u{6c}\u{75}\u{65}\u{3d}\u{27}\u{63}\u{6f}\u{64}\u{65}\u{27}\u{20}\u{63}\u{6c}\u{61}\u{73}\u{73}\u{3d}\u{27}\u{62}\u{75}\u{74}\u{74}\u{6f}\u{6e}\u{27}\u{20}\u{73}\u{74}\u{79}\u{6c}\u{65}\u{3d}\u{27}\u{77}\u{69}\u{64}\u{74}\u{68}\u{3a}\u{34}\u{30}\u{70}\u{78}\u{3b}\u{27}\u{20}\u{6f}\u{6e}\u{43}\u{6c}\u{69}\u{63}\u{6b}\u{3d}\u{5c}\u{22}\u{61}\u{64}\u{64}\u{54}\u{65}\u{78}\u{74}\u{28}\u{27}\u{6d}\u{65}\u{73}\u{73}\u{61}\u{67}\u{65}\u{27}\u{2c}\u{20}\u{27}\u{5b}\u{63}\u{6f}\u{64}\u{65}\u{5d}\u{27}\u{2c}\u{20}\u{27}\u{5b}\u{2f}\u{63}\u{6f}\u{64}\u{65}\u{5d}\u{27}\u{29}\u{3b}\u{5c}\u{22}\u{3e}\u{0d}\u{0a}\u{3c}\u{69}\u{6e}\u{70}\u{75}\u{74}\u{20}\u{74}\u{79}\u{70}\u{65}\u{3d}\u{27}\u{62}\u{75}\u{74}\u{74}\u{6f}\u{6e}\u{27}\u{20}\u{76}\u{61}\u{6c}\u{75}\u{65}\u{3d}\u{27}\u{71}\u{75}\u{6f}\u{74}\u{65}\u{27}\u{20}\u{63}\u{6c}\u{61}\u{73}\u{73}\u{3d}\u{27}\u{62}\u{75}\u{74}\u{74}\u{6f}\u{6e}\u{27}\u{20}\u{73}\u{74}\u{79}\u{6c}\u{65}\u{3d}\u{27}\u{77}\u{69}\u{64}\u{74}\u{68}\u{3a}\u{34}\u{35}\u{70}\u{78}\u{3b}\u{27}\u{20}\u{6f}\u{6e}\u{43}\u{6c}\u{69}\u{63}\u{6b}\u{3d}\u{5c}\u{22}\u{61}\u{64}\u{64}\u{54}\u{65}\u{78}\u{74}\u{28}\u{27}\u{6d}\u{65}\u{73}\u{73}\u{61}\u{67}\u{65}\u{27}\u{2c}\u{20}\u{27}\u{5b}\u{71}\u{75}\u{6f}\u{74}\u{65}\u{5d}\u{27}\u{2c}\u{20}\u{27}\u{5b}\u{2f}\u{71}\u{75}\u{6f}\u{74}\u{65}\u{5d}\u{27}\u{29}\u{3b}\u{5c}\u{22}\u{3e}\u{0d}\u{0a}\u{3c}\u{2f}\u{74}\u{64}\u{3e}\u{0d}\u{0a}\u{3c}\u{2f}\u{74}\u{72}\u{3e}\u{0d}\u{0a}\u{3c}\u{74}\u{72}\u{3e}\u{0d}\u{0a}\u{3c}\u{74}\u{64}\u{20}\u{77}\u{69}\u{64}\u{74}\u{68}\u{3d}\u{27}\u{31}\u{34}\u{35}\u{27}\u{20}\u{63}\u{6c}\u{61}\u{73}\u{73}\u{3d}\u{27}\u{74}\u{62}\u{6c}\u{32}\u{27}\u{3e}\u{26}\u{6e}\u{62}\u{73}\u{70}\u{3b}\u{3c}\u{2f}\u{74}\u{64}\u{3e}\u{0d}\u{0a}\u{3c}\u{74}\u{64}\u{20}\u{63}\u{6c}\u{61}\u{73}\u{73}\u{3d}\u{27}\u{74}\u{62}\u{6c}\u{31}\u{27}\u{3e}\u{0d}\u{0a}"))
(assert (= x_39 (str.++ x_36 literal_38)))
(assert (= x_40 (str.++ x_37 sigmaStar_1)))
(assert (= x_41 (str.++ x_40 x_39)))
(assert (= x_42 (str.++ x_41 sigmaStar_8)))
(assert (= literal_44 "\u{3c}\u{73}\u{65}\u{6c}\u{65}\u{63}\u{74}\u{20}\u{6e}\u{61}\u{6d}\u{65}\u{3d}\u{27}\u{62}\u{62}\u{63}\u{6f}\u{6c}\u{6f}\u{72}\u{27}\u{20}\u{63}\u{6c}\u{61}\u{73}\u{73}\u{3d}\u{27}\u{74}\u{65}\u{78}\u{74}\u{62}\u{6f}\u{78}\u{27}\u{20}\u{73}\u{74}\u{79}\u{6c}\u{65}\u{3d}\u{27}\u{77}\u{69}\u{64}\u{74}\u{68}\u{3a}\u{39}\u{30}\u{70}\u{78}\u{3b}\u{27}\u{20}\u{6f}\u{6e}\u{43}\u{68}\u{61}\u{6e}\u{67}\u{65}\u{3d}\u{22}\u{61}\u{64}\u{64}\u{54}\u{65}\u{78}\u{74}\u{28}\u{27}\u{6d}\u{65}\u{73}\u{73}\u{61}\u{67}\u{65}\u{27}\u{2c}\u{20}\u{27}\u{5b}\u{63}\u{6f}\u{6c}\u{6f}\u{72}\u{3d}\u{27}\u{20}\u{2b}\u{20}\u{74}\u{68}\u{69}\u{73}\u{2e}\u{6f}\u{70}\u{74}\u{69}\u{6f}\u{6e}\u{73}\u{5b}\u{74}\u{68}\u{69}\u{73}\u{2e}\u{73}\u{65}\u{6c}\u{65}\u{63}\u{74}\u{65}\u{64}\u{49}\u{6e}\u{64}\u{65}\u{78}\u{5d}\u{2e}\u{76}\u{61}\u{6c}\u{75}\u{65}\u{20}\u{2b}\u{20}\u{27}\u{5d}\u{27}\u{2c}\u{20}\u{27}\u{5b}\u{2f}\u{63}\u{6f}\u{6c}\u{6f}\u{72}\u{5d}\u{27}\u{29}\u{3b}\u{74}\u{68}\u{69}\u{73}\u{2e}\u{73}\u{65}\u{6c}\u{65}\u{63}\u{74}\u{65}\u{64}\u{49}\u{6e}\u{64}\u{65}\u{78}\u{3d}\u{30}\u{3b}\u{22}\u{3e}\u{0d}\u{0a}\u{3c}\u{6f}\u{70}\u{74}\u{69}\u{6f}\u{6e}\u{20}\u{76}\u{61}\u{6c}\u{75}\u{65}\u{3d}\u{27}\u{27}\u{3e}\u{44}\u{65}\u{66}\u{61}\u{75}\u{6c}\u{74}\u{3c}\u{2f}\u{6f}\u{70}\u{74}\u{69}\u{6f}\u{6e}\u{3e}\u{0d}\u{0a}\u{3c}\u{6f}\u{70}\u{74}\u{69}\u{6f}\u{6e}\u{20}\u{76}\u{61}\u{6c}\u{75}\u{65}\u{3d}\u{27}\u{6d}\u{61}\u{72}\u{6f}\u{6f}\u{6e}\u{27}\u{20}\u{73}\u{74}\u{79}\u{6c}\u{65}\u{3d}\u{27}\u{63}\u{6f}\u{6c}\u{6f}\u{72}\u{3a}\u{6d}\u{61}\u{72}\u{6f}\u{6f}\u{6e}\u{3b}\u{27}\u{3e}\u{4d}\u{61}\u{72}\u{6f}\u{6f}\u{6e}\u{3c}\u{2f}\u{6f}\u{70}\u{74}\u{69}\u{6f}\u{6e}\u{3e}\u{0d}\u{0a}\u{3c}\u{6f}\u{70}\u{74}\u{69}\u{6f}\u{6e}\u{20}\u{76}\u{61}\u{6c}\u{75}\u{65}\u{3d}\u{27}\u{72}\u{65}\u{64}\u{27}\u{20}\u{73}\u{74}\u{79}\u{6c}\u{65}\u{3d}\u{27}\u{63}\u{6f}\u{6c}\u{6f}\u{72}\u{3a}\u{72}\u{65}\u{64}\u{3b}\u{27}\u{3e}\u{52}\u{65}\u{64}\u{3c}\u{2f}\u{6f}\u{70}\u{74}\u{69}\u{6f}\u{6e}\u{3e}\u{0d}\u{0a}\u{3c}\u{6f}\u{70}\u{74}\u{69}\u{6f}\u{6e}\u{20}\u{76}\u{61}\u{6c}\u{75}\u{65}\u{3d}\u{27}\u{6f}\u{72}\u{61}\u{6e}\u{67}\u{65}\u{27}\u{20}\u{73}\u{74}\u{79}\u{6c}\u{65}\u{3d}\u{27}\u{63}\u{6f}\u{6c}\u{6f}\u{72}\u{3a}\u{6f}\u{72}\u{61}\u{6e}\u{67}\u{65}\u{3b}\u{27}\u{3e}\u{4f}\u{72}\u{61}\u{6e}\u{67}\u{65}\u{3c}\u{2f}\u{6f}\u{70}\u{74}\u{69}\u{6f}\u{6e}\u{3e}\u{0d}\u{0a}\u{3c}\u{6f}\u{70}\u{74}\u{69}\u{6f}\u{6e}\u{20}\u{76}\u{61}\u{6c}\u{75}\u{65}\u{3d}\u{27}\u{62}\u{72}\u{6f}\u{77}\u{6e}\u{27}\u{20}\u{73}\u{74}\u{79}\u{6c}\u{65}\u{3d}\u{27}\u{63}\u{6f}\u{6c}\u{6f}\u{72}\u{3a}\u{62}\u{72}\u{6f}\u{77}\u{6e}\u{3b}\u{27}\u{3e}\u{42}\u{72}\u{6f}\u{77}\u{6e}\u{3c}\u{2f}\u{6f}\u{70}\u{74}\u{69}\u{6f}\u{6e}\u{3e}\u{0d}\u{0a}\u{3c}\u{6f}\u{70}\u{74}\u{69}\u{6f}\u{6e}\u{20}\u{76}\u{61}\u{6c}\u{75}\u{65}\u{3d}\u{27}\u{79}\u{65}\u{6c}\u{6c}\u{6f}\u{77}\u{27}\u{20}\u{73}\u{74}\u{79}\u{6c}\u{65}\u{3d}\u{27}\u{63}\u{6f}\u{6c}\u{6f}\u{72}\u{3a}\u{79}\u{65}\u{6c}\u{6c}\u{6f}\u{77}\u{3b}\u{27}\u{3e}\u{59}\u{65}\u{6c}\u{6c}\u{6f}\u{77}\u{3c}\u{2f}\u{6f}\u{70}\u{74}\u{69}\u{6f}\u{6e}\u{3e}\u{0d}\u{0a}\u{3c}\u{6f}\u{70}\u{74}\u{69}\u{6f}\u{6e}\u{20}\u{76}\u{61}\u{6c}\u{75}\u{65}\u{3d}\u{27}\u{67}\u{72}\u{65}\u{65}\u{6e}\u{27}\u{20}\u{73}\u{74}\u{79}\u{6c}\u{65}\u{3d}\u{27}\u{63}\u{6f}\u{6c}\u{6f}\u{72}\u{3a}\u{67}\u{72}\u{65}\u{65}\u{6e}\u{3b}\u{27}\u{3e}\u{47}\u{72}\u{65}\u{65}\u{6e}\u{3c}\u{2f}\u{6f}\u{70}\u{74}\u{69}\u{6f}\u{6e}\u{3e}\u{0d}\u{0a}\u{3c}\u{6f}\u{70}\u{74}\u{69}\u{6f}\u{6e}\u{20}\u{76}\u{61}\u{6c}\u{75}\u{65}\u{3d}\u{27}\u{6c}\u{69}\u{6d}\u{65}\u{27}\u{20}\u{73}\u{74}\u{79}\u{6c}\u{65}\u{3d}\u{27}\u{63}\u{6f}\u{6c}\u{6f}\u{72}\u{3a}\u{6c}\u{69}\u{6d}\u{65}\u{3b}\u{27}\u{3e}\u{4c}\u{69}\u{6d}\u{65}\u{3c}\u{2f}\u{6f}\u{70}\u{74}\u{69}\u{6f}\u{6e}\u{3e}\u{0d}\u{0a}\u{3c}\u{6f}\u{70}\u{74}\u{69}\u{6f}\u{6e}\u{20}\u{76}\u{61}\u{6c}\u{75}\u{65}\u{3d}\u{27}\u{6f}\u{6c}\u{69}\u{76}\u{65}\u{27}\u{20}\u{73}\u{74}\u{79}\u{6c}\u{65}\u{3d}\u{27}\u{63}\u{6f}\u{6c}\u{6f}\u{72}\u{3a}\u{6f}\u{6c}\u{69}\u{76}\u{65}\u{3b}\u{27}\u{3e}\u{4f}\u{6c}\u{69}\u{76}\u{65}\u{3c}\u{2f}\u{6f}\u{70}\u{74}\u{69}\u{6f}\u{6e}\u{3e}\u{0d}\u{0a}\u{3c}\u{6f}\u{70}\u{74}\u{69}\u{6f}\u{6e}\u{20}\u{76}\u{61}\u{6c}\u{75}\u{65}\u{3d}\u{27}\u{63}\u{79}\u{61}\u{6e}\u{27}\u{20}\u{73}\u{74}\u{79}\u{6c}\u{65}\u{3d}\u{27}\u{63}\u{6f}\u{6c}\u{6f}\u{72}\u{3a}\u{63}\u{79}\u{61}\u{6e}\u{3b}\u{27}\u{3e}\u{43}\u{79}\u{61}\u{6e}\u{3c}\u{2f}\u{6f}\u{70}\u{74}\u{69}\u{6f}\u{6e}\u{3e}\u{0d}\u{0a}\u{3c}\u{6f}\u{70}\u{74}\u{69}\u{6f}\u{6e}\u{20}\u{76}\u{61}\u{6c}\u{75}\u{65}\u{3d}\u{27}\u{62}\u{6c}\u{75}\u{65}\u{27}\u{20}\u{73}\u{74}\u{79}\u{6c}\u{65}\u{3d}\u{27}\u{63}\u{6f}\u{6c}\u{6f}\u{72}\u{3a}\u{62}\u{6c}\u{75}\u{65}\u{3b}\u{27}\u{3e}\u{42}\u{6c}\u{75}\u{65}\u{3c}\u{2f}\u{6f}\u{70}\u{74}\u{69}\u{6f}\u{6e}\u{3e}\u{0d}\u{0a}\u{3c}\u{6f}\u{70}\u{74}\u{69}\u{6f}\u{6e}\u{20}\u{76}\u{61}\u{6c}\u{75}\u{65}\u{3d}\u{27}\u{6e}\u{61}\u{76}\u{79}\u{27}\u{20}\u{73}\u{74}\u{79}\u{6c}\u{65}\u{3d}\u{27}\u{63}\u{6f}\u{6c}\u{6f}\u{72}\u{3a}\u{6e}\u{61}\u{76}\u{79}\u{3b}\u{27}\u{3e}\u{4e}\u{61}\u{76}\u{79}\u{20}\u{42}\u{6c}\u{75}\u{65}\u{3c}\u{2f}\u{6f}\u{70}\u{74}\u{69}\u{6f}\u{6e}\u{3e}\u{0d}\u{0a}\u{3c}\u{6f}\u{70}\u{74}\u{69}\u{6f}\u{6e}\u{20}\u{76}\u{61}\u{6c}\u{75}\u{65}\u{3d}\u{27}\u{70}\u{75}\u{72}\u{70}\u{6c}\u{65}\u{27}\u{20}\u{73}\u{74}\u{79}\u{6c}\u{65}\u{3d}\u{27}\u{63}\u{6f}\u{6c}\u{6f}\u{72}\u{3a}\u{70}\u{75}\u{72}\u{70}\u{6c}\u{65}\u{3b}\u{27}\u{3e}\u{50}\u{75}\u{72}\u{70}\u{6c}\u{65}\u{3c}\u{2f}\u{6f}\u{70}\u{74}\u{69}\u{6f}\u{6e}\u{3e}\u{0d}\u{0a}\u{3c}\u{6f}\u{70}\u{74}\u{69}\u{6f}\u{6e}\u{20}\u{76}\u{61}\u{6c}\u{75}\u{65}\u{3d}\u{27}\u{76}\u{69}\u{6f}\u{6c}\u{65}\u{74}\u{27}\u{20}\u{73}\u{74}\u{79}\u{6c}\u{65}\u{3d}\u{27}\u{63}\u{6f}\u{6c}\u{6f}\u{72}\u{3a}\u{76}\u{69}\u{6f}\u{6c}\u{65}\u{74}\u{3b}\u{27}\u{3e}\u{56}\u{69}\u{6f}\u{6c}\u{65}\u{74}\u{3c}\u{2f}\u{6f}\u{70}\u{74}\u{69}\u{6f}\u{6e}\u{3e}\u{0d}\u{0a}\u{3c}\u{6f}\u{70}\u{74}\u{69}\u{6f}\u{6e}\u{20}\u{76}\u{61}\u{6c}\u{75}\u{65}\u{3d}\u{27}\u{62}\u{6c}\u{61}\u{63}\u{6b}\u{27}\u{20}\u{73}\u{74}\u{79}\u{6c}\u{65}\u{3d}\u{27}\u{63}\u{6f}\u{6c}\u{6f}\u{72}\u{3a}\u{62}\u{6c}\u{61}\u{63}\u{6b}\u{3b}\u{27}\u{3e}\u{42}\u{6c}\u{61}\u{63}\u{6b}\u{3c}\u{2f}\u{6f}\u{70}\u{74}\u{69}\u{6f}\u{6e}\u{3e}\u{0d}\u{0a}\u{3c}\u{6f}\u{70}\u{74}\u{69}\u{6f}\u{6e}\u{20}\u{76}\u{61}\u{6c}\u{75}\u{65}\u{3d}\u{27}\u{67}\u{72}\u{61}\u{79}\u{27}\u{20}\u{73}\u{74}\u{79}\u{6c}\u{65}\u{3d}\u{27}\u{63}\u{6f}\u{6c}\u{6f}\u{72}\u{3a}\u{67}\u{72}\u{61}\u{79}\u{3b}\u{27}\u{3e}\u{47}\u{72}\u{61}\u{79}\u{3c}\u{2f}\u{6f}\u{70}\u{74}\u{69}\u{6f}\u{6e}\u{3e}\u{0d}\u{0a}\u{3c}\u{6f}\u{70}\u{74}\u{69}\u{6f}\u{6e}\u{20}\u{76}\u{61}\u{6c}\u{75}\u{65}\u{3d}\u{27}\u{73}\u{69}\u{6c}\u{76}\u{65}\u{72}\u{27}\u{20}\u{73}\u{74}\u{79}\u{6c}\u{65}\u{3d}\u{27}\u{63}\u{6f}\u{6c}\u{6f}\u{72}\u{3a}\u{73}\u{69}\u{6c}\u{76}\u{65}\u{72}\u{3b}\u{27}\u{3e}\u{53}\u{69}\u{6c}\u{76}\u{65}\u{72}\u{3c}\u{2f}\u{6f}\u{70}\u{74}\u{69}\u{6f}\u{6e}\u{3e}\u{0d}\u{0a}\u{3c}\u{6f}\u{70}\u{74}\u{69}\u{6f}\u{6e}\u{20}\u{76}\u{61}\u{6c}\u{75}\u{65}\u{3d}\u{27}\u{77}\u{68}\u{69}\u{74}\u{65}\u{27}\u{20}\u{73}\u{74}\u{79}\u{6c}\u{65}\u{3d}\u{27}\u{63}\u{6f}\u{6c}\u{6f}\u{72}\u{3a}\u{77}\u{68}\u{69}\u{74}\u{65}\u{3b}\u{27}\u{3e}\u{57}\u{68}\u{69}\u{74}\u{65}\u{3c}\u{2f}\u{6f}\u{70}\u{74}\u{69}\u{6f}\u{6e}\u{3e}\u{0d}\u{0a}\u{3c}\u{2f}\u{73}\u{65}\u{6c}\u{65}\u{63}\u{74}\u{3e}\u{0d}\u{0a}\u{3c}\u{2f}\u{74}\u{64}\u{3e}\u{0d}\u{0a}\u{3c}\u{2f}\u{74}\u{72}\u{3e}\u{0d}\u{0a}\u{3c}\u{74}\u{72}\u{3e}\u{0d}\u{0a}\u{3c}\u{74}\u{64}\u{20}\u{77}\u{69}\u{64}\u{74}\u{68}\u{3d}\u{27}\u{31}\u{34}\u{35}\u{27}\u{20}\u{63}\u{6c}\u{61}\u{73}\u{73}\u{3d}\u{27}\u{74}\u{62}\u{6c}\u{32}\u{27}\u{3e}\u{26}\u{6e}\u{62}\u{73}\u{70}\u{3b}\u{3c}\u{2f}\u{74}\u{64}\u{3e}\u{0d}\u{0a}\u{3c}\u{74}\u{64}\u{20}\u{63}\u{6c}\u{61}\u{73}\u{73}\u{3d}\u{27}\u{74}\u{62}\u{6c}\u{32}\u{27}\u{3e}\u{0d}\u{0a}"))
(assert (= x_45 (str.++ x_42 literal_44)))
(assert (= literal_43 "\u{6d}\u{65}\u{73}\u{73}\u{61}\u{67}\u{65}"))
(assert (= x_46 (str.++ x_45 literal_43)))
(assert (= literal_47 "\u{0d}\u{0a}\u{3c}\u{2f}\u{74}\u{64}\u{3e}\u{0d}\u{0a}\u{3c}\u{2f}\u{74}\u{72}\u{3e}\u{0d}\u{0a}\u{3c}\u{74}\u{72}\u{3e}\u{0d}\u{0a}\u{3c}\u{74}\u{64}\u{20}\u{76}\u{61}\u{6c}\u{69}\u{67}\u{6e}\u{3d}\u{27}\u{74}\u{6f}\u{70}\u{27}\u{20}\u{77}\u{69}\u{64}\u{74}\u{68}\u{3d}\u{27}\u{31}\u{34}\u{35}\u{27}\u{20}\u{63}\u{6c}\u{61}\u{73}\u{73}\u{3d}\u{27}\u{74}\u{62}\u{6c}\u{32}\u{27}\u{3e}"))
(assert (= x_48 (str.++ x_46 literal_47)))
(assert (= x_49 (str.++ x_48 sigmaStar_12)))
(assert (= literal_50 "\u{3c}\u{2f}\u{74}\u{64}\u{3e}\u{0d}\u{0a}\u{3c}\u{74}\u{64}\u{20}\u{63}\u{6c}\u{61}\u{73}\u{73}\u{3d}\u{27}\u{74}\u{62}\u{6c}\u{31}\u{27}\u{3e}\u{5c}\u{6e}"))
(assert (= x_51 (str.++ x_49 literal_50)))
(assert (str.in_re x_51 (re.++ (re.* re.allchar) (re.++ (str.to_re "\u{5c}\u{3c}\u{53}\u{43}\u{52}\u{49}\u{50}\u{54}") (re.* re.allchar)))))
(check-sat)
(exit)
